experiment/data/hgs-res/Vrp-Set-P-n55/Vrp-Set-P-n55-hgs/1.hgs1.tour
Route #1: 16 33 6
Route #2: 1 43 42 41 23
Route #3: 2 28 22
Route #4: 21 47 5
Route #5: 30 48 45
Route #6: 36 37 20 15 29
Route #7: 4
Route #8: 46 52 34
Route #9: 27 13 54 19 35
Route #10: 53 14 8
Route #11: 26 11 7
Route #12: 38 10 39
Route #13: 9 25 31
Route #14: 17 40 12
Route #15: 51 3 44 32
Route #16: 49 24 18 50
Cost 944.558
